c Reduced graph for p29 generated by Cyril Grelier
p edge 53 254
e 1 9
e 1 11
e 1 19
e 1 20
e 1 26
e 1 37
e 1 40
e 1 44
e 1 49
e 1 50
e 1 52
e 2 3
e 2 6
e 2 8
e 2 10
e 2 14
e 2 16
e 2 18
e 2 19
e 2 27
e 2 33
e 2 34
e 2 36
e 2 41
e 2 50
e 3 4
e 3 5
e 3 6
e 3 8
e 3 9
e 3 10
e 3 14
e 3 16
e 3 18
e 3 29
e 3 36
e 3 50
e 4 5
e 4 9
e 4 22
e 4 29
e 4 41
e 4 47
e 5 9
e 5 28
e 5 29
e 5 49
e 6 8
e 6 10
e 6 14
e 6 16
e 6 18
e 6 23
e 6 36
e 6 42
e 6 43
e 6 50
e 7 11
e 7 12
e 7 13
e 7 15
e 7 17
e 7 18
e 7 27
e 7 38
e 8 10
e 8 14
e 8 16
e 8 18
e 8 21
e 8 28
e 8 36
e 8 46
e 8 50
e 8 52
e 9 11
e 9 19
e 9 26
e 9 29
e 9 44
e 9 52
e 10 14
e 10 16
e 10 18
e 10 24
e 10 26
e 10 35
e 10 36
e 10 50
e 11 15
e 11 17
e 11 18
e 11 19
e 11 26
e 11 44
e 11 52
e 12 13
e 12 14
e 12 27
e 12 30
e 12 38
e 12 39
e 12 47
e 12 53
e 13 27
e 13 31
e 13 36
e 13 38
e 13 45
e 13 48
e 14 16
e 14 18
e 14 30
e 14 36
e 14 39
e 14 47
e 14 50
e 14 53
e 15 17
e 15 18
e 15 32
e 15 33
e 15 46
e 15 48
e 16 18
e 16 22
e 16 25
e 16 32
e 16 36
e 16 38
e 16 44
e 16 50
e 16 51
e 17 18
e 17 24
e 17 31
e 17 37
e 17 42
e 17 51
e 18 36
e 18 50
e 19 26
e 19 27
e 19 33
e 19 34
e 19 41
e 19 44
e 19 52
e 20 21
e 20 23
e 20 35
e 20 37
e 20 39
e 20 40
e 20 45
e 20 49
e 20 50
e 21 23
e 21 28
e 21 35
e 21 39
e 21 45
e 21 46
e 21 52
e 22 25
e 22 32
e 22 38
e 22 41
e 22 44
e 22 47
e 22 51
e 23 35
e 23 39
e 23 42
e 23 43
e 23 45
e 24 26
e 24 31
e 24 35
e 24 37
e 24 42
e 24 51
e 25 30
e 25 32
e 25 38
e 25 44
e 25 51
e 26 35
e 26 44
e 26 52
e 27 33
e 27 34
e 27 38
e 27 41
e 28 46
e 28 49
e 28 52
e 29 34
e 29 40
e 29 43
e 29 53
e 30 39
e 30 47
e 30 53
e 31 36
e 31 37
e 31 42
e 31 45
e 31 48
e 31 51
e 32 33
e 32 38
e 32 44
e 32 46
e 32 48
e 32 51
e 33 34
e 33 41
e 33 46
e 33 48
e 34 40
e 34 41
e 34 43
e 34 53
e 35 39
e 35 45
e 36 45
e 36 48
e 36 50
e 37 40
e 37 42
e 37 49
e 37 50
e 37 51
e 38 44
e 38 51
e 39 45
e 39 47
e 39 53
e 40 43
e 40 49
e 40 50
e 40 53
e 41 47
e 42 43
e 42 51
e 43 53
e 44 51
e 44 52
e 45 48
e 46 48
e 46 52
e 47 53
e 49 50
